NAME : pr1002.308287.tour
COMMENT : Cost = 0_308287
COMMENT : Found by LKH [Keld Helsgaun] Mon Nov 19 19:56:57 2018
TYPE : TOUR
DIMENSION : 1011
TOUR_SECTION
1
2
1011
7
8
9
10
14
15
18
21
19
20
335
336
337
338
339
340
341
342
343
344
345
350
351
352
353
349
346
347
348
354
359
358
357
355
356
660
661
662
663
664
665
666
667
668
719
720
718
717
721
722
715
714
716
696
695
694
693
692
691
690
689
688
680
681
679
678
673
672
669
670
671
674
677
675
676
682
687
686
685
683
684
988
989
990
984
983
985
986
987
970
982
980
981
971
972
969
968
967
973
974
975
976
979
978
977
950
949
951
952
948
947
946
945
944
943
942
941
940
955
956
954
953
993
961
962
963
964
965
966
702
703
704
701
700
699
698
705
697
706
707
709
708
710
713
711
712
723
724
725
726
728
729
727
620
619
618
617
624
623
621
622
649
650
651
648
645
646
647
652
653
654
655
656
657
658
659
642
643
644
641
373
372
371
370
369
378
379
381
380
382
385
383
384
400
401
399
327
328
329
330
331
326
324
325
316
315
314
37
36
35
34
33
32
62
63
64
66
67
72
71
1007
139
140
141
142
143
144
145
146
147
148
149
150
151
152
153
154
155
156
164
165
166
169
168
167
163
162
158
157
185
159
160
161
172
171
170
173
174
175
176
177
178
179
180
181
184
183
182
996
203
204
206
205
207
210
209
208
200
199
198
201
202
196
197
194
195
187
186
241
242
240
238
239
188
189
193
192
190
191
237
236
235
233
234
221
219
218
217
212
211
213
216
215
214
220
222
223
224
225
230
232
231
264
263
243
244
245
246
262
261
260
248
247
249
250
251
252
995
253
254
255
256
126
125
127
128
129
130
131
132
137
138
135
136
76
1008
77
93
94
98
97
96
95
134
133
100
101
102
103
104
124
123
122
120
121
257
258
259
270
274
273
272
271
269
268
267
266
265
229
228
227
226
497
496
495
494
493
483
484
492
491
490
486
485
513
487
488
489
500
499
498
501
502
503
504
505
506
507
508
509
512
511
510
999
531
532
534
533
535
538
537
536
528
527
526
529
530
524
525
522
523
515
514
569
570
568
566
567
516
517
521
520
518
519
565
564
563
561
562
549
547
546
545
540
539
541
544
543
542
548
550
551
552
553
554
555
556
557
593
594
595
596
597
590
589
588
576
575
578
577
581
582
583
584
454
453
455
456
457
458
459
460
465
466
464
463
462
424
425
426
427
419
420
418
417
415
414
416
410
406
407
402
292
291
290
289
296
295
293
294
321
322
323
320
319
318
317
311
312
313
45
44
43
42
41
50
40
38
39
60
61
65
59
58
57
55
56
73
1010
6
1009
70
69
68
12
11
13
16
17
22
23
24
25
26
31
30
29
27
28
332
333
334
398
397
396
395
394
387
386
388
389
393
392
391
390
360
361
362
363
364
365
366
367
368
377
376
375
374
640
639
638
637
636
635
634
633
992
625
626
628
627
612
613
614
615
616
732
731
730
736
737
739
740
741
742
743
745
744
738
735
734
733
749
750
748
746
747
755
754
753
752
751
792
791
790
789
756
757
758
759
760
761
762
774
775
773
772
771
770
768
1000
763
764
765
766
767
769
960
959
958
957
939
938
937
936
935
934
933
932
931
930
929
928
927
926
916
904
903
906
905
909
910
911
912
915
914
913
777
776
778
779
780
781
782
783
784
785
786
787
788
793
794
795
602
603
604
605
606
607
608
609
610
611
629
630
631
632
441
439
438
440
442
443
444
445
447
446
434
433
997
435
436
437
413
412
411
409
408
403
288
287
286
299
300
298
297
991
305
306
307
308
309
310
46
47
48
49
51
53
52
54
1006
75
79
78
82
88
86
87
89
90
92
91
99
994
105
106
118
119
117
116
115
114
303
302
282
281
280
279
278
277
276
275
467
468
469
470
471
472
473
474
475
476
477
478
479
480
481
482
998
580
579
571
572
573
574
591
592
559
560
558
825
824
823
822
821
811
812
820
819
818
814
813
841
815
816
817
828
827
826
829
830
831
832
833
834
835
836
837
840
839
838
1002
859
860
862
861
863
866
865
864
856
855
854
857
858
852
853
850
851
843
842
897
898
896
894
895
844
845
849
848
846
847
893
892
891
889
890
877
875
874
873
868
867
869
872
871
870
876
878
879
880
881
882
883
884
885
886
888
887
919
920
921
922
923
924
925
917
918
902
901
900
899
907
908
1001
810
809
808
807
806
805
804
803
802
801
800
799
798
797
796
601
600
599
598
587
586
585
449
448
450
451
452
432
431
430
429
428
461
423
422
421
405
404
285
284
283
301
304
113
111
110
112
107
108
109
85
84
83
81
80
74
1005
4
1004
3
1003
5
-1
EOF
